
nbSections=4;
nbReclaimer=3;

nbVessel=25;
nbTask=35;

Q=[1 1 2];
			P=[	6	19	11	19	8	10	7	20	6	10	8	15	6	8	19	20	14	19	9	7	13	14	16	16	10	11	15	16	12	9	20	8	11	9	16	];
	len=[	3	10	6	10	4	5	4	10	3	5	4	8	3	4	10	10	7	10	5	4	7	7	8	8	5	6	8	8	6	5	10	4	6	5	8	];
	ArrivalTime=[	1	92	48	161	158	215	63	122	69	45	57	61	104	151	116	42	42	208	176	75	111	98	212	156	196											];
	L=[	9	9	3	7	4	9	4	5	10	6	6	10	9	5	8	10	5	3	7	6	7	8	7	10	5											];
	weight=[	1	2	8	2	7	10	3	1	2	1	9	4	3	10	3	7	1	8	10	6	1	6	6	5	7											];
	Ls=[	10	8	9	10																																];
																																					
	dist=[[	2	3	1	2	],																															
	[	1	1	1	2	],																															
																																					
	[	3	1	3	2	]];																															
																																					
											
																																					
											
																																					
				
																																					
																											
																																				


B=[	1	13	26	38	51	63	76	89	101	114	126	139	151	164	175	188	201	213	226	238	251	264	276	289	301	314	327	];
E=[	7	20	32	44	57	69	83	94	108	120	133	145	158	168	181	194	206	218	231	243	257	268	282	294	307	320	336	];


AssVessel=[1 2 3 4 5 6 7 8 9 10 11 12 13 14 15 16 17 18 19 20 21 22 23 24 25 1 2 3 4 5 6 7 8 9 10 ];


D=[1	1	1	1	1	1	1	1	1	1	1	1	1	1	1	1	1	1	1	1	2	2	2	2	2	2	2	2	2	2	2	2	2	2	2	2	2	2	2	2	3	3	3	3	3	3	3	3	3	3	3	3	3	3	3	3	3	3	3	3];

vertical=[1	2	3	4	5	6	7	8	9	10	11	12	13	14	15	16	17	18	19	20	1	2	3	4	5	6	7	8	9	10	11	12	13	14	15	16	17	18	19	20	1	2	3	4	5	6	7	8	9	10	11	12	13	14	15	16	17	18	19	20];


